\ENCODING=ISO-8859-1
\Problem name: 

Minimize
 obj: 20.4265748765755 x1_1 + 21.1479386716029 x1_2 + 27.0527934062867 x1_3
      + 20.2591807274844 x1_4 + 23.1175381668144 x2_1 + 16.5328029272665 x2_2
      + 13.7797070701773 x2_3 + 17.7713536687313 x2_4 + 20.46036794546 x3_1
      + 14.9065362368739 x3_2 + 14.7155673641146 x3_3 + 14.8127287207944 x3_4
      + 13.3630164901876 x4_1 + 17.3238873264514 x4_2 + 20.3722101701147 x4_3
      + 12.7877381814074 x4_4 + 17.8277517559776 x5_1 + 14.6548364594845 x5_2
      + 26.0851797260801 x5_3 + 24.120887609875 x5_4 + 12.1449024508261 x6_1
      + 13.4064098844455 x6_2 + 25.6018946922467 x6_3 + 19.7278558012176 x6_4
      + 23.4485558916763 x7_1 + 14.4140067541178 x7_2 + 27.4114534247123 x7_3
      + 23.8081076338093 x7_4 + 27.2433517778949 x8_1 + 23.3155495564584 x8_2
      + 22.4900636233551 x8_3 + 17.4175231095721 x8_4 + 25.3365513583719 x9_1
      + 24.5829703024773 x9_2 + 19.4762967166836 x9_3 + 12.8800321241396 x9_4
      + 26.2447793613211 x10_1 + 19.6512922886105 x10_2 + 17.077613859858 x10_3
      + 21.5380266013489 x10_4
Subject To
 c1:  x1_1 + x1_2 + x1_3 + x1_4  = 1
 c2:  x2_1 + x2_2 + x2_3 + x2_4  = 1
 c3:  x3_1 + x3_2 + x3_3 + x3_4  = 1
 c4:  x4_1 + x4_2 + x4_3 + x4_4  = 1
 c5:  x5_1 + x5_2 + x5_3 + x5_4  = 1
 c6:  x6_1 + x6_2 + x6_3 + x6_4  = 1
 c7:  x7_1 + x7_2 + x7_3 + x7_4  = 1
 c8:  x8_1 + x8_2 + x8_3 + x8_4  = 1
 c9:  x9_1 + x9_2 + x9_3 + x9_4  = 1
 c10: x10_1 + x10_2 + x10_3 + x10_4  = 1
 c11: y1 + y2 + y3 + y4  = 2
 c12: - x1_1 + y1 >= 0
 c13: - x1_2 + y2 >= 0
 c14: - x1_3 + y3 >= 0
 c15: - x1_4 + y4 >= 0
 c16: - x2_1 + y1 >= 0
 c17: - x2_2 + y2 >= 0
 c18: - x2_3 + y3 >= 0
 c19: - x2_4 + y4 >= 0
 c20: - x3_1 + y1 >= 0
 c21: - x3_2 + y2 >= 0
 c22: - x3_3 + y3 >= 0
 c23: - x3_4 + y4 >= 0
 c24: - x4_1 + y1 >= 0
 c25: - x4_2 + y2 >= 0
 c26: - x4_3 + y3 >= 0
 c27: - x4_4 + y4 >= 0
 c28: - x5_1 + y1 >= 0
 c29: - x5_2 + y2 >= 0
 c30: - x5_3 + y3 >= 0
 c31: - x5_4 + y4 >= 0
 c32: - x6_1 + y1 >= 0
 c33: - x6_2 + y2 >= 0
 c34: - x6_3 + y3 >= 0
 c35: - x6_4 + y4 >= 0
 c36: - x7_1 + y1 >= 0
 c37: - x7_2 + y2 >= 0
 c38: - x7_3 + y3 >= 0
 c39: - x7_4 + y4 >= 0
 c40: - x8_1 + y1 >= 0
 c41: - x8_2 + y2 >= 0
 c42: - x8_3 + y3 >= 0
 c43: - x8_4 + y4 >= 0
 c44: - x9_1 + y1 >= 0
 c45: - x9_2 + y2 >= 0
 c46: - x9_3 + y3 >= 0
 c47: - x9_4 + y4 >= 0
 c48: - x10_1 + y1 >= 0
 c49: - x10_2 + y2 >= 0
 c50: - x10_3 + y3 >= 0
 c51: - x10_4 + y4 >= 0
 c52: 7 x1_1 + 5 x2_1 + 8 x3_1 + 8 x4_1 + 9 x5_1 + 9 x6_1 + 6 x7_1 + 8 x8_1
      + 5 x9_1 + 7 x10_1 <= 57
 c53: 7 x1_2 + 5 x2_2 + 8 x3_2 + 8 x4_2 + 9 x5_2 + 9 x6_2 + 6 x7_2 + 8 x8_2
      + 5 x9_2 + 7 x10_2 <= 62
 c54: 7 x1_3 + 5 x2_3 + 8 x3_3 + 8 x4_3 + 9 x5_3 + 9 x6_3 + 6 x7_3 + 8 x8_3
      + 5 x9_3 + 7 x10_3 <= 58
 c55: 7 x1_4 + 5 x2_4 + 8 x3_4 + 8 x4_4 + 9 x5_4 + 9 x6_4 + 6 x7_4 + 8 x8_4
      + 5 x9_4 + 7 x10_4 <= 55
Bounds
 0 <= x1_1 <= 1
 0 <= x1_2 <= 1
 0 <= x1_3 <= 1
 0 <= x1_4 <= 1
 0 <= x2_1 <= 1
 0 <= x2_2 <= 1
 0 <= x2_3 <= 1
 0 <= x2_4 <= 1
 0 <= x3_1 <= 1
 0 <= x3_2 <= 1
 0 <= x3_3 <= 1
 0 <= x3_4 <= 1
 0 <= x4_1 <= 1
 0 <= x4_2 <= 1
 0 <= x4_3 <= 1
 0 <= x4_4 <= 1
 0 <= x5_1 <= 1
 0 <= x5_2 <= 1
 0 <= x5_3 <= 1
 0 <= x5_4 <= 1
 0 <= x6_1 <= 1
 0 <= x6_2 <= 1
 0 <= x6_3 <= 1
 0 <= x6_4 <= 1
 0 <= x7_1 <= 1
 0 <= x7_2 <= 1
 0 <= x7_3 <= 1
 0 <= x7_4 <= 1
 0 <= x8_1 <= 1
 0 <= x8_2 <= 1
 0 <= x8_3 <= 1
 0 <= x8_4 <= 1
 0 <= x9_1 <= 1
 0 <= x9_2 <= 1
 0 <= x9_3 <= 1
 0 <= x9_4 <= 1
 0 <= x10_1 <= 1
 0 <= x10_2 <= 1
 0 <= x10_3 <= 1
 0 <= x10_4 <= 1
 0 <= y1 <= 1
 0 <= y2 <= 1
 0 <= y3 <= 1
 0 <= y4 <= 1
Binaries
 x1_1  x1_2  x1_3  x1_4  x2_1  x2_2  x2_3  x2_4  x3_1  x3_2  x3_3  x3_4  x4_1 
 x4_2  x4_3  x4_4  x5_1  x5_2  x5_3  x5_4  x6_1  x6_2  x6_3  x6_4  x7_1  x7_2 
 x7_3  x7_4  x8_1  x8_2  x8_3  x8_4  x9_1  x9_2  x9_3  x9_4  x10_1  x10_2 
 x10_3  x10_4  y1  y2  y3  y4 
End
